*SENSE:Minimize
NAME          MODEL
ROWS
 N  OBJ
 L  C0000000
 L  C0000001
 G  C0000002
 G  C0000003
 G  C0000004
COLUMNS
    MARK      'MARKER'                 'INTORG'
    X0000000  C0000001   1.00000e+00
    X0000000  C0000002   1.00000e+00
    X0000000  OBJ        1.62000e+02
    MARK      'MARKER'                 'INTEND'
    MARK      'MARKER'                 'INTORG'
    X0000001  C0000001   1.00000e+00
    X0000001  C0000003   1.00000e+00
    X0000001  OBJ        2.25000e+02
    MARK      'MARKER'                 'INTEND'
    MARK      'MARKER'                 'INTORG'
    X0000002  C0000001   1.00000e+00
    X0000002  C0000004   1.00000e+00
    X0000002  OBJ        1.26000e+02
    MARK      'MARKER'                 'INTEND'
    MARK      'MARKER'                 'INTORG'
    X0000003  C0000000   1.00000e+00
    X0000003  C0000002   1.00000e+00
    X0000003  OBJ        1.53000e+02
    MARK      'MARKER'                 'INTEND'
    MARK      'MARKER'                 'INTORG'
    X0000004  C0000000   1.00000e+00
    X0000004  C0000003   1.00000e+00
    X0000004  OBJ        2.25000e+02
    MARK      'MARKER'                 'INTEND'
    MARK      'MARKER'                 'INTORG'
    X0000005  C0000000   1.00000e+00
    X0000005  C0000004   1.00000e+00
    X0000005  OBJ        1.62000e+02
    MARK      'MARKER'                 'INTEND'
RHS
    RHS       C0000000   3.50000e+02
    RHS       C0000001   6.00000e+02
    RHS       C0000002   3.25000e+02
    RHS       C0000003   3.00000e+02
    RHS       C0000004   2.75000e+02
BOUNDS
 LO BND       X0000000   0.00000e+00
 LO BND       X0000001   0.00000e+00
 LO BND       X0000002   0.00000e+00
 LO BND       X0000003   0.00000e+00
 LO BND       X0000004   0.00000e+00
 LO BND       X0000005   0.00000e+00
ENDATA
